WARNING: for repeatability, setting FPU to use double precision
============================[ Problem Statistics ]=============================
|                                                                             |
|  Number of variables:        199928                                         |
|  Number of clauses:          462938                                         |
|  Parse time:                   0.15 s                                       |
|                                                                             |
============================[ Search Statistics ]==============================
| Conflicts |          ORIGINAL         |          LEARNT          | Progress |
|           |    Vars  Clauses Literals |    Limit  Clauses Lit/Cl |          |
===============================================================================
|       100 |  110232   444078   997388 |   162828      100     12 | 44.864 % |
|       250 |  110232   444078   997388 |   179111      250     55 | 44.864 % |
|       475 |  110232   444078   997388 |   197022      475     48 | 44.864 % |
|       812 |  110232   444078   997388 |   216724      812     48 | 44.864 % |
===============================================================================
restarts              : 7
conflicts             : 884            (1842 /sec)
decisions             : 12224          (0.00 % random) (25465 /sec)
propagations          : 2147255        (4473168 /sec)
conflict literals     : 44873          (7.20 % deleted)
Memory used           : 52.00 MB
CPU time              : 0.48003 s

SATISFIABLE
